HUN,8,6,787
1,4,0,11,2,3,3,19,5,9,4,6
1,30,0,15,2,9,5,27,3,20,4,16
0,23,1,19,2,27,5,23,4,14,3,1
0,30,1,5,2,18,3,4,4,12,5,27
1,13,0,18,2,20,3,21,5,23,4,7
0,23,1,21,2,26,4,27,5,3,3,22
2,9,1,12,0,29,4,18,5,8,3,13
1,30,0,12,2,26,3,17,4,5,5,25
